c 1 __UCLIBC_HAS_THREADS_NATIVE__
c 5 __UCLIBC_HAS_FLOATS__
c 2 __UCLIBC_HAS_XLOCALE__
c 6 __UCLIBC_HAS_LOCALE__
c 7 __LINUXTHREADS_NEW__
c 4 __UCLIBC_SUSV3_LEGACY__
c 3 __UCLIBC_HAS_THREADS__
p cnf 7 1
-5 1 -2 -3 6 -4 -7 1
